# Solution for model VRP
# Objective value = 2.1189283294134484e+03
x0_0 0
x0_1 0
x0_2 0
x0_3 0
x0_4 0
x0_5 0
x0_6 0
x0_7 0
x0_8 0
x0_9 0
x0_10 0
x0_11 0
x0_12 0
x0_13 0
x0_14 0
x0_15 0
x0_16 0
x0_17 0
x0_18 0
x0_19 0
x1_0 0
x1_1 0
x1_2 0
x1_3 0
x1_4 0
x1_5 0
x1_6 0
x1_7 0
x1_8 0
x1_9 0
x1_10 0
x1_11 0
x1_12 1
x1_13 0
x1_14 0
x1_15 0
x1_16 0
x1_17 0
x1_18 0
x1_19 0
x2_0 0
x2_1 0
x2_2 0
x2_3 0
x2_4 0
x2_5 0
x2_6 0
x2_7 0
x2_8 0
x2_9 0
x2_10 0
x2_11 0
x2_12 0
x2_13 0
x2_14 0
x2_15 0
x2_16 0
x2_17 0
x2_18 0
x2_19 0
x3_0 0
x3_1 0
x3_2 0
x3_3 0
x3_4 0
x3_5 0
x3_6 0
x3_7 0
x3_8 0
x3_9 0
x3_10 0
x3_11 0
x3_12 0
x3_13 0
x3_14 0
x3_15 1
x3_16 0
x3_17 0
x3_18 1
x3_19 0
x4_0 0
x4_1 0
x4_2 0
x4_3 0
x4_4 0
x4_5 0
x4_6 0
x4_7 0
x4_8 0
x4_9 0
x4_10 0
x4_11 0
x4_12 0
x4_13 0
x4_14 0
x4_15 0
x4_16 0
x4_17 0
x4_18 0
x4_19 0
x5_0 0
x5_1 0
x5_2 0
x5_3 0
x5_4 0
x5_5 0
x5_6 0
x5_7 0
x5_8 0
x5_9 0
x5_10 0
x5_11 0
x5_12 0
x5_13 0
x5_14 0
x5_15 0
x5_16 1
x5_17 0
x5_18 0
x5_19 0
x6_0 0
x6_1 0
x6_2 0
x6_3 0
x6_4 0
x6_5 0
x6_6 0
x6_7 0
x6_8 0
x6_9 0
x6_10 0
x6_11 0
x6_12 0
x6_13 0
x6_14 0
x6_15 0
x6_16 0
x6_17 0
x6_18 0
x6_19 0
x7_0 0
x7_1 0
x7_2 0
x7_3 0
x7_4 0
x7_5 0
x7_6 0
x7_7 0
x7_8 0
x7_9 0
x7_10 0
x7_11 0
x7_12 0
x7_13 0
x7_14 0
x7_15 0
x7_16 0
x7_17 0
x7_18 0
x7_19 0
x8_0 0
x8_1 0
x8_2 0
x8_3 0
x8_4 0
x8_5 0
x8_6 0
x8_7 0
x8_8 0
x8_9 0
x8_10 0
x8_11 0
x8_12 0
x8_13 0
x8_14 0
x8_15 0
x8_16 0
x8_17 0
x8_18 0
x8_19 0
x9_0 0
x9_1 0
x9_2 0
x9_3 0
x9_4 0
x9_5 0
x9_6 0
x9_7 0
x9_8 0
x9_9 0
x9_10 0
x9_11 0
x9_12 0
x9_13 1
x9_14 0
x9_15 0
x9_16 0
x9_17 0
x9_18 0
x9_19 0
x10_0 0
x10_1 0
x10_2 0
x10_3 0
x10_4 0
x10_5 0
x10_6 0
x10_7 0
x10_8 0
x10_9 0
x10_10 0
x10_11 1
x10_12 0
x10_13 0
x10_14 0
x10_15 0
x10_16 0
x10_17 0
x10_18 0
x10_19 0
x11_0 0
x11_1 0
x11_2 0
x11_3 0
x11_4 0
x11_5 0
x11_6 0
x11_7 0
x11_8 0
x11_9 0
x11_10 0
x11_11 0
x11_12 0
x11_13 0
x11_14 0
x11_15 0
x11_16 0
x11_17 0
x11_18 0
x11_19 0
x12_0 0
x12_1 0
x12_2 0
x12_3 0
x12_4 0
x12_5 0
x12_6 0
x12_7 0
x12_8 0
x12_9 0
x12_10 0
x12_11 0
x12_12 0
x12_13 0
x12_14 0
x12_15 0
x12_16 0
x12_17 0
x12_18 0
x12_19 0
x13_0 0
x13_1 0
x13_2 0
x13_3 0
x13_4 0
x13_5 0
x13_6 0
x13_7 0
x13_8 0
x13_9 0
x13_10 0
x13_11 0
x13_12 0
x13_13 0
x13_14 0
x13_15 0
x13_16 0
x13_17 1
x13_18 0
x13_19 0
x14_0 0
x14_1 0
x14_2 0
x14_3 0
x14_4 0
x14_5 0
x14_6 0
x14_7 0
x14_8 0
x14_9 0
x14_10 1
x14_11 0
x14_12 0
x14_13 0
x14_14 0
x14_15 0
x14_16 0
x14_17 0
x14_18 0
x14_19 0
x15_0 0
x15_1 0
x15_2 0
x15_3 0
x15_4 0
x15_5 0
x15_6 0
x15_7 0
x15_8 0
x15_9 0
x15_10 0
x15_11 0
x15_12 0
x15_13 0
x15_14 0
x15_15 0
x15_16 0
x15_17 0
x15_18 0
x15_19 1
x16_0 0
x16_1 0
x16_2 0
x16_3 0
x16_4 0
x16_5 0
x16_6 0
x16_7 0
x16_8 0
x16_9 0
x16_10 0
x16_11 0
x16_12 0
x16_13 0
x16_14 0
x16_15 0
x16_16 0
x16_17 0
x16_18 0
x16_19 0
x17_0 0
x17_1 0
x17_2 0
x17_3 0
x17_4 0
x17_5 0
x17_6 0
x17_7 0
x17_8 0
x17_9 0
x17_10 0
x17_11 0
x17_12 0
x17_13 0
x17_14 0
x17_15 0
x17_16 0
x17_17 0
x17_18 0
x17_19 0
x18_0 0
x18_1 0
x18_2 0
x18_3 0
x18_4 0
x18_5 0
x18_6 0
x18_7 0
x18_8 0
x18_9 0
x18_10 0
x18_11 0
x18_12 0
x18_13 0
x18_14 1
x18_15 0
x18_16 0
x18_17 0
x18_18 0
x18_19 0
x19_0 0
x19_1 0
x19_2 0
x19_3 0
x19_4 0
x19_5 0
x19_6 0
x19_7 0
x19_8 0
x19_9 0
x19_10 0
x19_11 0
x19_12 0
x19_13 0
x19_14 0
x19_15 0
x19_16 0
x19_17 0
x19_18 0
x19_19 0
y_0 0
y_1 1
y_2 0
y_3 1
y_4 0
y_5 1
y_6 0
y_7 0
y_8 0
y_9 1
f0_0 1
f0_1 0
f0_2 0
f0_3 0
f0_4 0
f0_5 0
f0_6 0
f0_7 0
f0_8 0
f0_9 0
f0_10 0
f0_11 0
f0_12 0
f0_13 0
f0_14 0
f0_15 0
f0_16 0
f0_17 0
f0_18 0
f0_19 0
f1_0 0
f1_1 1
f1_2 0
f1_3 0
f1_4 0
f1_5 0
f1_6 0
f1_7 0
f1_8 0
f1_9 0
f1_10 0
f1_11 0
f1_12 1
f1_13 0
f1_14 0
f1_15 0
f1_16 0
f1_17 0
f1_18 0
f1_19 0
f2_0 0
f2_1 0
f2_2 1
f2_3 0
f2_4 0
f2_5 0
f2_6 0
f2_7 0
f2_8 0
f2_9 0
f2_10 0
f2_11 0
f2_12 0
f2_13 0
f2_14 0
f2_15 0
f2_16 0
f2_17 0
f2_18 0
f2_19 0
f3_0 0
f3_1 0
f3_2 0
f3_3 1
f3_4 0
f3_5 0
f3_6 0
f3_7 0
f3_8 0
f3_9 0
f3_10 1
f3_11 1
f3_12 0
f3_13 0
f3_14 1
f3_15 1
f3_16 0
f3_17 0
f3_18 1
f3_19 1
f4_0 0
f4_1 0
f4_2 0
f4_3 0
f4_4 1
f4_5 0
f4_6 0
f4_7 0
f4_8 0
f4_9 0
f4_10 0
f4_11 0
f4_12 0
f4_13 0
f4_14 0
f4_15 0
f4_16 0
f4_17 0
f4_18 0
f4_19 0
f5_0 0
f5_1 0
f5_2 0
f5_3 0
f5_4 0
f5_5 1
f5_6 0
f5_7 0
f5_8 0
f5_9 0
f5_10 0
f5_11 0
f5_12 0
f5_13 0
f5_14 0
f5_15 0
f5_16 1
f5_17 0
f5_18 0
f5_19 0
f6_0 0
f6_1 0
f6_2 0
f6_3 0
f6_4 0
f6_5 0
f6_6 1
f6_7 0
f6_8 0
f6_9 0
f6_10 0
f6_11 0
f6_12 0
f6_13 0
f6_14 0
f6_15 0
f6_16 0
f6_17 0
f6_18 0
f6_19 0
f7_0 0
f7_1 0
f7_2 0
f7_3 0
f7_4 0
f7_5 0
f7_6 0
f7_7 1
f7_8 0
f7_9 0
f7_10 0
f7_11 0
f7_12 0
f7_13 0
f7_14 0
f7_15 0
f7_16 0
f7_17 0
f7_18 0
f7_19 0
f8_0 0
f8_1 0
f8_2 0
f8_3 0
f8_4 0
f8_5 0
f8_6 0
f8_7 0
f8_8 1
f8_9 0
f8_10 0
f8_11 0
f8_12 0
f8_13 0
f8_14 0
f8_15 0
f8_16 0
f8_17 0
f8_18 0
f8_19 0
f9_0 0
f9_1 0
f9_2 0
f9_3 0
f9_4 0
f9_5 0
f9_6 0
f9_7 0
f9_8 0
f9_9 1
f9_10 0
f9_11 0
f9_12 0
f9_13 1
f9_14 0
f9_15 0
f9_16 0
f9_17 1
f9_18 0
f9_19 0
z_10 0
z_11 1
z_12 1
z_13 0
z_14 0
z_15 0
z_16 1
z_17 1
z_18 0
z_19 1
a10_0 0
a11_0 0
a12_0 0
a13_0 0
a14_0 0
a15_0 0
a16_0 0
a17_0 0
a18_0 0
a19_0 0
a10_1 0
a11_1 0
a12_1 1
a13_1 0
a14_1 0
a15_1 0
a16_1 0
a17_1 0
a18_1 0
a19_1 0
a10_2 0
a11_2 0
a12_2 0
a13_2 0
a14_2 0
a15_2 0
a16_2 0
a17_2 0
a18_2 0
a19_2 0
a10_3 0
a11_3 1
a12_3 0
a13_3 0
a14_3 0
a15_3 0
a16_3 0
a17_3 0
a18_3 0
a19_3 1
a10_4 0
a11_4 0
a12_4 0
a13_4 0
a14_4 0
a15_4 0
a16_4 0
a17_4 0
a18_4 0
a19_4 0
a10_5 0
a11_5 0
a12_5 0
a13_5 0
a14_5 0
a15_5 0
a16_5 1
a17_5 0
a18_5 0
a19_5 0
a10_6 0
a11_6 0
a12_6 0
a13_6 0
a14_6 0
a15_6 0
a16_6 0
a17_6 0
a18_6 0
a19_6 0
a10_7 0
a11_7 0
a12_7 0
a13_7 0
a14_7 0
a15_7 0
a16_7 0
a17_7 0
a18_7 0
a19_7 0
a10_8 0
a11_8 0
a12_8 0
a13_8 0
a14_8 0
a15_8 0
a16_8 0
a17_8 0
a18_8 0
a19_8 0
a10_9 0
a11_9 0
a12_9 0
a13_9 0
a14_9 0
a15_9 0
a16_9 0
a17_9 1
a18_9 0
a19_9 0
t0_0 0
t0_1 0
t0_2 0
t0_3 0
t0_4 0
t0_5 0
t0_6 0
t0_7 0
t0_8 0
t0_9 0
t0_10 0
t0_11 0
t0_12 0
t0_13 0
t0_14 0
t0_15 0
t0_16 0
t0_17 0
t0_18 0
t0_19 0
t1_0 0
t1_1 0
t1_2 0
t1_3 0
t1_4 0
t1_5 0
t1_6 0
t1_7 0
t1_8 0
t1_9 0
t1_10 0
t1_11 0
t1_12 2.4999999999999996e+01
t1_13 0
t1_14 0
t1_15 0
t1_16 0
t1_17 0
t1_18 0
t1_19 0
t2_0 0
t2_1 0
t2_2 0
t2_3 0
t2_4 0
t2_5 0
t2_6 0
t2_7 0
t2_8 0
t2_9 0
t2_10 0
t2_11 0
t2_12 0
t2_13 0
t2_14 0
t2_15 0
t2_16 0
t2_17 0
t2_18 0
t2_19 0
t3_0 0
t3_1 0
t3_2 0
t3_3 0
t3_4 0
t3_5 0
t3_6 0
t3_7 0
t3_8 0
t3_9 0
t3_10 0
t3_11 0
t3_12 0
t3_13 0
t3_14 0
t3_15 50
t3_16 3.5527136788005009e-15
t3_17 0
t3_18 100
t3_19 0
t4_0 0
t4_1 0
t4_2 0
t4_3 0
t4_4 0
t4_5 0
t4_6 0
t4_7 0
t4_8 0
t4_9 0
t4_10 0
t4_11 0
t4_12 0
t4_13 0
t4_14 0
t4_15 0
t4_16 0
t4_17 0
t4_18 0
t4_19 0
t5_0 0
t5_1 0
t5_2 0
t5_3 0
t5_4 0
t5_5 0
t5_6 0
t5_7 0
t5_8 0
t5_9 0
t5_10 0
t5_11 0
t5_12 0
t5_13 0
t5_14 0
t5_15 0
t5_16 2.5000000000000068e+01
t5_17 0
t5_18 2.3106831123964168e-13
t5_19 0
t6_0 0
t6_1 0
t6_2 0
t6_3 0
t6_4 0
t6_5 0
t6_6 0
t6_7 0
t6_8 0
t6_9 0
t6_10 0
t6_11 0
t6_12 0
t6_13 0
t6_14 0
t6_15 0
t6_16 0
t6_17 0
t6_18 0
t6_19 0
t7_0 0
t7_1 0
t7_2 0
t7_3 0
t7_4 0
t7_5 0
t7_6 0
t7_7 0
t7_8 0
t7_9 0
t7_10 0
t7_11 0
t7_12 0
t7_13 0
t7_14 0
t7_15 0
t7_16 0
t7_17 0
t7_18 0
t7_19 0
t8_0 0
t8_1 0
t8_2 0
t8_3 0
t8_4 0
t8_5 0
t8_6 0
t8_7 0
t8_8 0
t8_9 0
t8_10 0
t8_11 0
t8_12 0
t8_13 0
t8_14 0
t8_15 0
t8_16 0
t8_17 0
t8_18 0
t8_19 0
t9_0 0
t9_1 0
t9_2 0
t9_3 0
t9_4 0
t9_5 0
t9_6 0
t9_7 0
t9_8 0
t9_9 0
t9_10 0
t9_11 0
t9_12 0
t9_13 50
t9_14 0
t9_15 0
t9_16 0
t9_17 0
t9_18 0
t9_19 0
t10_0 0
t10_1 0
t10_2 0
t10_3 0
t10_4 0
t10_5 0
t10_6 0
t10_7 0
t10_8 0
t10_9 0
t10_10 0
t10_11 2.5000000000000831e+01
t10_12 0
t10_13 0
t10_14 0
t10_15 0
t10_16 0
t10_17 0
t10_18 0
t10_19 0
t11_0 0
t11_1 0
t11_2 0
t11_3 0
t11_4 0
t11_5 0
t11_6 0
t11_7 0
t11_8 0
t11_9 0
t11_10 0
t11_11 0
t11_12 0
t11_13 0
t11_14 0
t11_15 0
t11_16 0
t11_17 0
t11_18 0
t11_19 0
t12_0 0
t12_1 0
t12_2 0
t12_3 0
t12_4 0
t12_5 0
t12_6 0
t12_7 0
t12_8 0
t12_9 0
t12_10 0
t12_11 0
t12_12 0
t12_13 0
t12_14 0
t12_15 0
t12_16 0
t12_17 0
t12_18 0
t12_19 0
t13_0 0
t13_1 0
t13_2 0
t13_3 0
t13_4 0
t13_5 0
t13_6 0
t13_7 0
t13_8 0
t13_9 0
t13_10 0
t13_11 0
t13_12 0
t13_13 0
t13_14 0
t13_15 0
t13_16 0
t13_17 25
t13_18 0
t13_19 0
t14_0 0
t14_1 0
t14_2 0
t14_3 0
t14_4 0
t14_5 0
t14_6 0
t14_7 0
t14_8 0
t14_9 0
t14_10 5.0000000000000831e+01
t14_11 0
t14_12 0
t14_13 0
t14_14 0
t14_15 0
t14_16 0
t14_17 0
t14_18 0
t14_19 0
t15_0 0
t15_1 0
t15_2 0
t15_3 0
t15_4 0
t15_5 0
t15_6 0
t15_7 0
t15_8 0
t15_9 0
t15_10 0
t15_11 0
t15_12 0
t15_13 0
t15_14 0
t15_15 0
t15_16 0
t15_17 0
t15_18 0
t15_19 25
t16_0 0
t16_1 0
t16_2 0
t16_3 0
t16_4 0
t16_5 0
t16_6 0
t16_7 0
t16_8 0
t16_9 0
t16_10 0
t16_11 0
t16_12 0
t16_13 0
t16_14 7.1054273576010019e-14
t16_15 0
t16_16 0
t16_17 0
t16_18 1.7763568394002505e-15
t16_19 0
t17_0 0
t17_1 0
t17_2 0
t17_3 0
t17_4 0
t17_5 0
t17_6 0
t17_7 0
t17_8 0
t17_9 0
t17_10 0
t17_11 0
t17_12 0
t17_13 0
t17_14 0
t17_15 0
t17_16 0
t17_17 0
t17_18 0
t17_19 0
t18_0 0
t18_1 0
t18_2 0
t18_3 0
t18_4 0
t18_5 0
t18_6 0
t18_7 0
t18_8 0
t18_9 0
t18_10 0
t18_11 0
t18_12 0
t18_13 0
t18_14 7.5000000000000753e+01
t18_15 0
t18_16 0
t18_17 0
t18_18 0
t18_19 0
t19_0 0
t19_1 0
t19_2 0
t19_3 0
t19_4 0
t19_5 0
t19_6 0
t19_7 0
t19_8 0
t19_9 0
t19_10 0
t19_11 0
t19_12 0
t19_13 0
t19_14 0
t19_15 0
t19_16 0
t19_17 0
t19_18 0
t19_19 0
